benchmark/results/graph__10-1000-0.10-02_14/graph__10-1000-0.10-02_14_QuintonOs_Benders_primal_sub.txt
solution for: Quinton Bounded Benders_primal_sub
objective: 0.000181225
status: OPTIMAL_SOLUTION(2)
u_a0=1.062
u_a1=0.924
u_a2=0.768
u_a3=0.454
u_a4=0.584
u_a5=1.235
u_a7=1.312
u_a8=0.454
u_a9=11.768
tau=0.000
y_a0_proc_1=0.000
y_a1_proc_1=0.000
y_a2_proc_1=0.000
y_a3_proc_1=0.000
y_a4_proc_0=0.000
y_a5_proc_0=0.000
y_a6_proc_0=0.000
y_a7_proc_1=0.000
y_a8_proc_0=0.000
y_a9_proc_0=0.000
